n_res = 4;
rcap = [26, 23, 121, 148];
rtype = [1, 1, 2, 2];
n_tasks = 30;
modes = [ {1, 2, 3}, {4, 5, 6}, {7, 8, 9}, {10, 11, 12}, {13, 14, 15}, {16, 17, 18}, {19, 20, 21}, {22, 23, 24}, {25, 26, 27}, {28, 29, 30}, {31, 32, 33}, {34, 35, 36}, {37, 38, 39}, {40, 41, 42}, {43, 44, 45}, {46, 47, 48}, {49, 50, 51}, {52, 53, 54}, {55, 56, 57}, {58, 59, 60}, {61, 62, 63}, {64, 65, 66}, {67, 68, 69}, {70, 71, 72}, {73, 74, 75}, {76, 77, 78}, {79, 80, 81}, {82, 83, 84}, {85, 86, 87}, {88, 89, 90} ];
succ = [ {6, 11}, {7, 12, 17}, {4, 5, 14}, {8, 10, 16}, {13, 16, 23}, {9}, {24, 28}, {25}, {12, 15, 22}, {21}, {18, 23, 27}, {26}, {19, 26, 27}, {22, 24}, {19}, {24}, {18, 19, 20}, {29}, {21, 28}, {21, 22, 23}, {25, 29}, {27, 29}, {26}, {25}, {30}, {30}, {28, 30}, {}, {}, {} ];
n_opt = 90;
dur = [1, 3, 6, 1, 4, 8, 7, 7, 8, 3, 4, 6, 1, 3, 3, 1, 1, 8, 1, 4, 7, 2, 9, 10, 3, 4, 6, 3, 9, 10, 6, 10, 10, 7, 8, 10, 2, 2, 10, 3, 4, 4, 1, 7, 9, 2, 3, 4, 4, 5, 9, 4, 5, 8, 1, 2, 8, 7, 7, 9, 5, 8, 9, 2, 5, 9, 6, 9, 10, 5, 6, 7, 1, 10, 10, 4, 6, 9, 2, 5, 9, 3, 8, 9, 1, 2, 8, 3, 3, 6];
rreq = [|  5,  0,  0,  0,  0,  7,  0,  3,  0,  6,  0,  0,  0,  0,  7,  9,  0,  8,  0,  3,  0,  0,  5,  4,  0,  4,  0,  0,  8,  0,  4,  3,  1,  0,  5,  0,  5,  6,  5,  0,  9,  0,  0,  0,  0,  7,  6,  4,  3,  0,  3,  0,  0,  0,  0,  7,  0,  0,  4,  0,  8,  5,  0,  7,  0,  4,  0,  5,  0,  0,  0,  6,  8,  8,  0,  0,  3,  3,  0,  5,  0,  0,  7,  0,  8,  0,  7,  0,  7,  0
        |  0,  3,  2, 10, 10,  0,  7,  0,  7,  0,  7,  7,  7,  7,  0,  0,  6,  0,  5,  0,  3,  8,  0,  0,  2,  0,  2,  9,  0,  4,  0,  0,  0,  4,  0,  2,  0,  0,  0,  7,  0,  6,  2,  1,  1,  0,  0,  0,  0,  8,  0,  9,  7,  6,  5,  0,  4,  9,  0, 10,  0,  0,  3,  0,  4,  0,  3,  0,  1,  4,  3,  0,  0,  0,  9,  2,  0,  0,  3,  0,  2,  5,  0,  3,  0, 10,  0,  3,  0,  3
        |  0,  0,  0,  0,  7,  2,  0,  0,  0, 10,  0, 10,  0,  8,  0,  3,  3,  0,  0,  0,  0,  7,  7,  6,  8,  0,  6,  7,  4,  0,  5,  0,  5,  0,  4,  4,  6,  0,  0,  0,  0,  6,  0,  0,  2,  0,  3,  3,  0,  0,  7,  9,  5,  2,  0,  7,  0,  0,  0,  4,  4,  0,  3,  9,  6,  0,  0,  0,  0,  0,  0,  5,  0,  0,  4,  9,  4,  0,  0,  0,  0,  0, 10,  6,  0,  5,  3,  7, 10,  0
        |  9,  8,  8,  4,  0,  0, 10,  9,  8,  0,  5,  0,  6,  0,  2,  0,  0,  5, 10,  6,  3,  0,  0,  0,  0,  8,  0,  0,  0,  8,  0,  5,  0, 10,  0,  0,  0,  9,  9,  7,  3,  0,  8,  8,  0,  2,  0,  0,  2,  2,  0,  0,  0,  0, 10,  0,  9,  6,  5,  0,  0,  5,  0,  0,  0,  8,  7,  6,  6, 10,  8,  0,  8,  1,  0,  0,  0,  5,  1,  1,  1,  5,  0,  0,  6,  0,  0,  0,  0,  9 |];
